Minimize
	obj: m_1 + m_2 + m_3 + m_4 + m_5 + m_6 + m_7 + m_8
Subject To
	c1_1: 4.0 m_1 - 1.5 x_1_1(1.5) - 1.5 x_2_1(1.5) - 1.5 x_3_1(1.5) - 1.5 x_4_1(1.5) - 0.75 x_5_1(0.75) - 0.75 x_6_1(0.75) - 0.75 x_7_1(0.75) - 0.75 x_8_1(0.75) - 0.75 x_9_1(0.75) - 0.75 x_10_1(0.75) - 0.22 x_11_1(0.22) - 0.22 x_12_1(0.22) - 0.22 x_13_1(0.22) - 0.22 x_14_1(0.22) - 0.22 x_15_1(0.22) - 0.22 x_16_1(0.22) - 0.22 x_17_1(0.22) - 0.22 x_18_1(0.22) - 0.22 x_19_1(0.22) - 0.22 x_20_1(0.22) - 0.22 x_21_1(0.22) - 0.22 x_22_1(0.22) >= 0
	c1_2: 4.0 m_2 - 1.5 x_1_2(1.5) - 1.5 x_2_2(1.5) - 1.5 x_3_2(1.5) - 1.5 x_4_2(1.5) - 0.75 x_5_2(0.75) - 0.75 x_6_2(0.75) - 0.75 x_7_2(0.75) - 0.75 x_8_2(0.75) - 0.75 x_9_2(0.75) - 0.75 x_10_2(0.75) - 0.22 x_11_2(0.22) - 0.22 x_12_2(0.22) - 0.22 x_13_2(0.22) - 0.22 x_14_2(0.22) - 0.22 x_15_2(0.22) - 0.22 x_16_2(0.22) - 0.22 x_17_2(0.22) - 0.22 x_18_2(0.22) - 0.22 x_19_2(0.22) - 0.22 x_20_2(0.22) - 0.22 x_21_2(0.22) - 0.22 x_22_2(0.22) >= 0
	c1_3: 4.0 m_3 - 1.5 x_1_3(1.5) - 1.5 x_2_3(1.5) - 1.5 x_3_3(1.5) - 1.5 x_4_3(1.5) - 0.75 x_5_3(0.75) - 0.75 x_6_3(0.75) - 0.75 x_7_3(0.75) - 0.75 x_8_3(0.75) - 0.75 x_9_3(0.75) - 0.75 x_10_3(0.75) - 0.22 x_11_3(0.22) - 0.22 x_12_3(0.22) - 0.22 x_13_3(0.22) - 0.22 x_14_3(0.22) - 0.22 x_15_3(0.22) - 0.22 x_16_3(0.22) - 0.22 x_17_3(0.22) - 0.22 x_18_3(0.22) - 0.22 x_19_3(0.22) - 0.22 x_20_3(0.22) - 0.22 x_21_3(0.22) - 0.22 x_22_3(0.22) >= 0
	c1_4: 4.0 m_4 - 1.5 x_1_4(1.5) - 1.5 x_2_4(1.5) - 1.5 x_3_4(1.5) - 1.5 x_4_4(1.5) - 0.75 x_5_4(0.75) - 0.75 x_6_4(0.75) - 0.75 x_7_4(0.75) - 0.75 x_8_4(0.75) - 0.75 x_9_4(0.75) - 0.75 x_10_4(0.75) - 0.22 x_11_4(0.22) - 0.22 x_12_4(0.22) - 0.22 x_13_4(0.22) - 0.22 x_14_4(0.22) - 0.22 x_15_4(0.22) - 0.22 x_16_4(0.22) - 0.22 x_17_4(0.22) - 0.22 x_18_4(0.22) - 0.22 x_19_4(0.22) - 0.22 x_20_4(0.22) - 0.22 x_21_4(0.22) - 0.22 x_22_4(0.22) >= 0
	c1_5: 4.0 m_5 - 1.5 x_1_5(1.5) - 1.5 x_2_5(1.5) - 1.5 x_3_5(1.5) - 1.5 x_4_5(1.5) - 0.75 x_5_5(0.75) - 0.75 x_6_5(0.75) - 0.75 x_7_5(0.75) - 0.75 x_8_5(0.75) - 0.75 x_9_5(0.75) - 0.75 x_10_5(0.75) - 0.22 x_11_5(0.22) - 0.22 x_12_5(0.22) - 0.22 x_13_5(0.22) - 0.22 x_14_5(0.22) - 0.22 x_15_5(0.22) - 0.22 x_16_5(0.22) - 0.22 x_17_5(0.22) - 0.22 x_18_5(0.22) - 0.22 x_19_5(0.22) - 0.22 x_20_5(0.22) - 0.22 x_21_5(0.22) - 0.22 x_22_5(0.22) >= 0
	c1_6: 4.0 m_6 - 1.5 x_1_6(1.5) - 1.5 x_2_6(1.5) - 1.5 x_3_6(1.5) - 1.5 x_4_6(1.5) - 0.75 x_5_6(0.75) - 0.75 x_6_6(0.75) - 0.75 x_7_6(0.75) - 0.75 x_8_6(0.75) - 0.75 x_9_6(0.75) - 0.75 x_10_6(0.75) - 0.22 x_11_6(0.22) - 0.22 x_12_6(0.22) - 0.22 x_13_6(0.22) - 0.22 x_14_6(0.22) - 0.22 x_15_6(0.22) - 0.22 x_16_6(0.22) - 0.22 x_17_6(0.22) - 0.22 x_18_6(0.22) - 0.22 x_19_6(0.22) - 0.22 x_20_6(0.22) - 0.22 x_21_6(0.22) - 0.22 x_22_6(0.22) >= 0
	c1_7: 4.0 m_7 - 1.5 x_1_7(1.5) - 1.5 x_2_7(1.5) - 1.5 x_3_7(1.5) - 1.5 x_4_7(1.5) - 0.75 x_5_7(0.75) - 0.75 x_6_7(0.75) - 0.75 x_7_7(0.75) - 0.75 x_8_7(0.75) - 0.75 x_9_7(0.75) - 0.75 x_10_7(0.75) - 0.22 x_11_7(0.22) - 0.22 x_12_7(0.22) - 0.22 x_13_7(0.22) - 0.22 x_14_7(0.22) - 0.22 x_15_7(0.22) - 0.22 x_16_7(0.22) - 0.22 x_17_7(0.22) - 0.22 x_18_7(0.22) - 0.22 x_19_7(0.22) - 0.22 x_20_7(0.22) - 0.22 x_21_7(0.22) - 0.22 x_22_7(0.22) >= 0
	c1_8: 4.0 m_8 - 1.5 x_1_8(1.5) - 1.5 x_2_8(1.5) - 1.5 x_3_8(1.5) - 1.5 x_4_8(1.5) - 0.75 x_5_8(0.75) - 0.75 x_6_8(0.75) - 0.75 x_7_8(0.75) - 0.75 x_8_8(0.75) - 0.75 x_9_8(0.75) - 0.75 x_10_8(0.75) - 0.22 x_11_8(0.22) - 0.22 x_12_8(0.22) - 0.22 x_13_8(0.22) - 0.22 x_14_8(0.22) - 0.22 x_15_8(0.22) - 0.22 x_16_8(0.22) - 0.22 x_17_8(0.22) - 0.22 x_18_8(0.22) - 0.22 x_19_8(0.22) - 0.22 x_20_8(0.22) - 0.22 x_21_8(0.22) - 0.22 x_22_8(0.22) >= 0
	c2_1: x_1_1(1.5) + x_1_2(1.5) + x_1_3(1.5) + x_1_4(1.5) + x_1_5(1.5) + x_1_6(1.5) + x_1_7(1.5) + x_1_8(1.5) = 1
	c2_2: x_2_1(1.5) + x_2_2(1.5) + x_2_3(1.5) + x_2_4(1.5) + x_2_5(1.5) + x_2_6(1.5) + x_2_7(1.5) + x_2_8(1.5) = 1
	c2_3: x_3_1(1.5) + x_3_2(1.5) + x_3_3(1.5) + x_3_4(1.5) + x_3_5(1.5) + x_3_6(1.5) + x_3_7(1.5) + x_3_8(1.5) = 1
	c2_4: x_4_1(1.5) + x_4_2(1.5) + x_4_3(1.5) + x_4_4(1.5) + x_4_5(1.5) + x_4_6(1.5) + x_4_7(1.5) + x_4_8(1.5) = 1
	c2_5: x_5_1(0.75) + x_5_2(0.75) + x_5_3(0.75) + x_5_4(0.75) + x_5_5(0.75) + x_5_6(0.75) + x_5_7(0.75) + x_5_8(0.75) = 1
	c2_6: x_6_1(0.75) + x_6_2(0.75) + x_6_3(0.75) + x_6_4(0.75) + x_6_5(0.75) + x_6_6(0.75) + x_6_7(0.75) + x_6_8(0.75) = 1
	c2_7: x_7_1(0.75) + x_7_2(0.75) + x_7_3(0.75) + x_7_4(0.75) + x_7_5(0.75) + x_7_6(0.75) + x_7_7(0.75) + x_7_8(0.75) = 1
	c2_8: x_8_1(0.75) + x_8_2(0.75) + x_8_3(0.75) + x_8_4(0.75) + x_8_5(0.75) + x_8_6(0.75) + x_8_7(0.75) + x_8_8(0.75) = 1
	c2_9: x_9_1(0.75) + x_9_2(0.75) + x_9_3(0.75) + x_9_4(0.75) + x_9_5(0.75) + x_9_6(0.75) + x_9_7(0.75) + x_9_8(0.75) = 1
	c2_10: x_10_1(0.75) + x_10_2(0.75) + x_10_3(0.75) + x_10_4(0.75) + x_10_5(0.75) + x_10_6(0.75) + x_10_7(0.75) + x_10_8(0.75) = 1
	c2_11: x_11_1(0.22) + x_11_2(0.22) + x_11_3(0.22) + x_11_4(0.22) + x_11_5(0.22) + x_11_6(0.22) + x_11_7(0.22) + x_11_8(0.22) = 1
	c2_12: x_12_1(0.22) + x_12_2(0.22) + x_12_3(0.22) + x_12_4(0.22) + x_12_5(0.22) + x_12_6(0.22) + x_12_7(0.22) + x_12_8(0.22) = 1
	c2_13: x_13_1(0.22) + x_13_2(0.22) + x_13_3(0.22) + x_13_4(0.22) + x_13_5(0.22) + x_13_6(0.22) + x_13_7(0.22) + x_13_8(0.22) = 1
	c2_14: x_14_1(0.22) + x_14_2(0.22) + x_14_3(0.22) + x_14_4(0.22) + x_14_5(0.22) + x_14_6(0.22) + x_14_7(0.22) + x_14_8(0.22) = 1
	c2_15: x_15_1(0.22) + x_15_2(0.22) + x_15_3(0.22) + x_15_4(0.22) + x_15_5(0.22) + x_15_6(0.22) + x_15_7(0.22) + x_15_8(0.22) = 1
	c2_16: x_16_1(0.22) + x_16_2(0.22) + x_16_3(0.22) + x_16_4(0.22) + x_16_5(0.22) + x_16_6(0.22) + x_16_7(0.22) + x_16_8(0.22) = 1
	c2_17: x_17_1(0.22) + x_17_2(0.22) + x_17_3(0.22) + x_17_4(0.22) + x_17_5(0.22) + x_17_6(0.22) + x_17_7(0.22) + x_17_8(0.22) = 1
	c2_18: x_18_1(0.22) + x_18_2(0.22) + x_18_3(0.22) + x_18_4(0.22) + x_18_5(0.22) + x_18_6(0.22) + x_18_7(0.22) + x_18_8(0.22) = 1
	c2_19: x_19_1(0.22) + x_19_2(0.22) + x_19_3(0.22) + x_19_4(0.22) + x_19_5(0.22) + x_19_6(0.22) + x_19_7(0.22) + x_19_8(0.22) = 1
	c2_20: x_20_1(0.22) + x_20_2(0.22) + x_20_3(0.22) + x_20_4(0.22) + x_20_5(0.22) + x_20_6(0.22) + x_20_7(0.22) + x_20_8(0.22) = 1
	c2_21: x_21_1(0.22) + x_21_2(0.22) + x_21_3(0.22) + x_21_4(0.22) + x_21_5(0.22) + x_21_6(0.22) + x_21_7(0.22) + x_21_8(0.22) = 1
	c2_22: x_22_1(0.22) + x_22_2(0.22) + x_22_3(0.22) + x_22_4(0.22) + x_22_5(0.22) + x_22_6(0.22) + x_22_7(0.22) + x_22_8(0.22) = 1
Binary
	m_1
	m_2
	m_3
	m_4
	m_5
	m_6
	m_7
	m_8
	x_1_1(1.5)
	x_1_2(1.5)
	x_1_3(1.5)
	x_1_4(1.5)
	x_1_5(1.5)
	x_1_6(1.5)
	x_1_7(1.5)
	x_1_8(1.5)
	x_2_1(1.5)
	x_2_2(1.5)
	x_2_3(1.5)
	x_2_4(1.5)
	x_2_5(1.5)
	x_2_6(1.5)
	x_2_7(1.5)
	x_2_8(1.5)
	x_3_1(1.5)
	x_3_2(1.5)
	x_3_3(1.5)
	x_3_4(1.5)
	x_3_5(1.5)
	x_3_6(1.5)
	x_3_7(1.5)
	x_3_8(1.5)
	x_4_1(1.5)
	x_4_2(1.5)
	x_4_3(1.5)
	x_4_4(1.5)
	x_4_5(1.5)
	x_4_6(1.5)
	x_4_7(1.5)
	x_4_8(1.5)
	x_5_1(0.75)
	x_5_2(0.75)
	x_5_3(0.75)
	x_5_4(0.75)
	x_5_5(0.75)
	x_5_6(0.75)
	x_5_7(0.75)
	x_5_8(0.75)
	x_6_1(0.75)
	x_6_2(0.75)
	x_6_3(0.75)
	x_6_4(0.75)
	x_6_5(0.75)
	x_6_6(0.75)
	x_6_7(0.75)
	x_6_8(0.75)
	x_7_1(0.75)
	x_7_2(0.75)
	x_7_3(0.75)
	x_7_4(0.75)
	x_7_5(0.75)
	x_7_6(0.75)
	x_7_7(0.75)
	x_7_8(0.75)
	x_8_1(0.75)
	x_8_2(0.75)
	x_8_3(0.75)
	x_8_4(0.75)
	x_8_5(0.75)
	x_8_6(0.75)
	x_8_7(0.75)
	x_8_8(0.75)
	x_9_1(0.75)
	x_9_2(0.75)
	x_9_3(0.75)
	x_9_4(0.75)
	x_9_5(0.75)
	x_9_6(0.75)
	x_9_7(0.75)
	x_9_8(0.75)
	x_10_1(0.75)
	x_10_2(0.75)
	x_10_3(0.75)
	x_10_4(0.75)
	x_10_5(0.75)
	x_10_6(0.75)
	x_10_7(0.75)
	x_10_8(0.75)
	x_11_1(0.22)
	x_11_2(0.22)
	x_11_3(0.22)
	x_11_4(0.22)
	x_11_5(0.22)
	x_11_6(0.22)
	x_11_7(0.22)
	x_11_8(0.22)
	x_12_1(0.22)
	x_12_2(0.22)
	x_12_3(0.22)
	x_12_4(0.22)
	x_12_5(0.22)
	x_12_6(0.22)
	x_12_7(0.22)
	x_12_8(0.22)
	x_13_1(0.22)
	x_13_2(0.22)
	x_13_3(0.22)
	x_13_4(0.22)
	x_13_5(0.22)
	x_13_6(0.22)
	x_13_7(0.22)
	x_13_8(0.22)
	x_14_1(0.22)
	x_14_2(0.22)
	x_14_3(0.22)
	x_14_4(0.22)
	x_14_5(0.22)
	x_14_6(0.22)
	x_14_7(0.22)
	x_14_8(0.22)
	x_15_1(0.22)
	x_15_2(0.22)
	x_15_3(0.22)
	x_15_4(0.22)
	x_15_5(0.22)
	x_15_6(0.22)
	x_15_7(0.22)
	x_15_8(0.22)
	x_16_1(0.22)
	x_16_2(0.22)
	x_16_3(0.22)
	x_16_4(0.22)
	x_16_5(0.22)
	x_16_6(0.22)
	x_16_7(0.22)
	x_16_8(0.22)
	x_17_1(0.22)
	x_17_2(0.22)
	x_17_3(0.22)
	x_17_4(0.22)
	x_17_5(0.22)
	x_17_6(0.22)
	x_17_7(0.22)
	x_17_8(0.22)
	x_18_1(0.22)
	x_18_2(0.22)
	x_18_3(0.22)
	x_18_4(0.22)
	x_18_5(0.22)
	x_18_6(0.22)
	x_18_7(0.22)
	x_18_8(0.22)
	x_19_1(0.22)
	x_19_2(0.22)
	x_19_3(0.22)
	x_19_4(0.22)
	x_19_5(0.22)
	x_19_6(0.22)
	x_19_7(0.22)
	x_19_8(0.22)
	x_20_1(0.22)
	x_20_2(0.22)
	x_20_3(0.22)
	x_20_4(0.22)
	x_20_5(0.22)
	x_20_6(0.22)
	x_20_7(0.22)
	x_20_8(0.22)
	x_21_1(0.22)
	x_21_2(0.22)
	x_21_3(0.22)
	x_21_4(0.22)
	x_21_5(0.22)
	x_21_6(0.22)
	x_21_7(0.22)
	x_21_8(0.22)
	x_22_1(0.22)
	x_22_2(0.22)
	x_22_3(0.22)
	x_22_4(0.22)
	x_22_5(0.22)
	x_22_6(0.22)
	x_22_7(0.22)
	x_22_8(0.22)
End
